Route #1: 6 30 68 61 20 5
Route #2: 44 24 79 37 8 2 52 13
Route #3: 17 59 41 22 50 72 58
Route #4: 78 16 43 57 26 35 65 19 75 25 15 33 54 32 53
Route #5: 49 38 4 45 76 66 70
Route #6: 67 64 9 55 47 69 56 46 31 39
Route #7: 62 71 14 18 48 21
Route #8: 73 36 77 74 3 42
Route #9: 7 10 63 1 40
Route #10: 51 60 29 27 34 28 11 23 12
cost 2203.5703125